GLPSOL--GLPK LP/MIP Solver 5.0
Parameter(s) specified in the command line:
 --lp ../modeles/4_314.lp --log 4_314.log
Reading problem data from '../modeles/4_314.lp'...
1273 rows, 2520 columns, 8804 non-zeros
1256 integer variables, all of which are binary
3803 lines were read
GLPK Integer Optimizer 5.0
1273 rows, 2520 columns, 8804 non-zeros
1256 integer variables, all of which are binary
Preprocessing...
1240 constraint coefficient(s) were reduced
1273 rows, 2516 columns, 8800 non-zeros
1256 integer variables, all of which are binary
Scaling...
 A: min|aij| =  1.623e-04  max|aij| =  4.000e+00  ratio =  2.465e+04
GM: min|aij| =  7.981e-02  max|aij| =  1.253e+01  ratio =  1.570e+02
EQ: min|aij| =  6.369e-03  max|aij| =  1.000e+00  ratio =  1.570e+02
2N: min|aij| =  5.193e-03  max|aij| =  1.770e+00  ratio =  3.409e+02
Constructing initial basis...
Size of triangular part is 1273
Solving LP relaxation...
GLPK Simplex Optimizer 5.0
1273 rows, 2516 columns, 8800 non-zeros
      0: obj =   8.000000000e+00 inf =   1.950e+01 (9)
     75: obj =   4.275759236e-01 inf =   0.000e+00 (0)
*   259: obj =  -1.999879062e+00 inf =   3.774e-15 (0)
OPTIMAL LP SOLUTION FOUND
Integer optimization begins...
Long-step dual simplex will be used
+   259: mip =     not found yet >=              -inf        (1; 0)
+   428: >>>>>  -1.999875920e+00 >=  -1.999879062e+00 < 0.1% (159; 0)
+   611: >>>>>  -1.999879062e+00 >=  -1.999879062e+00   0.0% (4; 311)
+   611: mip =  -1.999879062e+00 >=     tree is empty   0.0% (0; 319)
INTEGER OPTIMAL SOLUTION FOUND
Time used:   0.5 secs
Memory used: 3.7 Mb (3886452 bytes)
